Version identifier: 22.1.0.0 | 2022-03-09 | 1a383f8ce
CPXPARAM_Threads                                 1
CPXPARAM_MIP_Strategy_VariableSelect             3
CPXPARAM_TimeLimit                               600
Tried aggregator 1 time.
MIP Presolve eliminated 203 rows and 1194 columns.
Reduced MIP has 1202 rows, 3582 columns, and 14861 nonzeros.
Reduced MIP has 2787 binaries, 795 generals, 0 SOSs, and 0 indicators.
Presolve time = 0.01 sec. (7.87 ticks)
Found incumbent of value 6.7861296e+74 after 0.03 sec. (19.43 ticks)
Probing fixed 0 vars, tightened 5 bounds.
Probing time = 0.03 sec. (21.15 ticks)
Tried aggregator 1 time.
Detecting symmetries...
Reduced MIP has 1202 rows, 3582 columns, and 14861 nonzeros.
Reduced MIP has 2789 binaries, 793 generals, 0 SOSs, and 0 indicators.
Presolve time = 0.01 sec. (10.15 ticks)
Probing time = 0.01 sec. (5.74 ticks)
Clique table members: 10290.
MIP emphasis: balance optimality and feasibility.
MIP search method: dynamic search.
Parallel mode: none, using 1 thread.
Root relaxation solution time = 0.02 sec. (15.18 ticks)

        Nodes                                         Cuts/
   Node  Left     Objective  IInf  Best Integer    Best Bound    ItCnt     Gap

*     0+    0                       6.78613e+74        0.0000           100.00%
      0     0        0.0000   182   6.78613e+74        0.0000      449  100.00%
*     0+    0                            0.0000        0.0000             0.00%
      0     0        cutoff              0.0000        0.0000      449    0.00%
Elapsed time = 0.18 sec. (131.14 ticks, tree = 0.01 MB, solutions = 2)

Root node processing (before b&c):
  Real time             =    0.18 sec. (131.31 ticks)
Sequential b&c:
  Real time             =    0.00 sec. (0.00 ticks)
                          ------------
Total (root+branch&cut) =    0.18 sec. (131.31 ticks)
Violation-free sequence bound:	199
Unscheduled:	0
Status:	Optimal
Time:	0.19
Sequence:
	5
	9
	5
	0
	4
	5
	9
	5
	9
	5
	4
	10
	9
	5
	4
	10
	4
	5
	0
	5
	4
	1
	4
	10
	4
	9
	5
	4
	9
	5
	4
	10
	4
	9
	5
	4
	9
	4
	5
	9
	5
	9
	5
	9
	1
	9
	9
	5
	9
	10
	4
	5
	0
	10
	9
	9
	10
	0
	5
	4
	1
	4
	5
	9
	1
	9
	5
	0
	9
	1
	0
	5
	9
	1
	4
	10
	4
	5
	0
	4
	1
	0
	1
	9
	10
	0
	10
	9
	4
	1
	0
	1
	4
	9
	5
	9
	5
	0
	5
	4
	1
	0
	5
	9
	5
	9
	5
	9
	10
	9
	1
	9
	4
	5
	9
	1
	9
	1
	0
	1
	9
	9
	1
	0
	1
	9
	5
	9
	1
	0
	5
	4
	1
	0
	10
	9
	5
	8
	1
	4
	1
	4
	1
	0
	5
	4
	1
	0
	9
	9
	5
	0
	1
	9
	5
	4
	1
	9
	5
	0
	1
	4
	1
	0
	3
	9
	1
	0
	5
	4
	1
	9
	10
	0
	1
	4
	5
	9
	5
	0
	5
	9
	5
	0
	1
	4
	10
	9
	5
	9
	10
	0
	10
	9
	5
	0
	1
	4
	5
Violation-free sequence:
	5
	9
	5
	0
	4
	5
	9
	5
	9
	5
	4
	10
	9
	5
	4
	10
	4
	5
	0
	5
	4
	1
	4
	10
	4
	9
	5
	4
	9
	5
	4
	10
	4
	9
	5
	4
	9
	4
	5
	9
	5
	9
	5
	9
	1
	9
	9
	5
	9
	10
	4
	5
	0
	10
	9
	9
	10
	0
	5
	4
	1
	4
	5
	9
	1
	9
	5
	0
	9
	1
	0
	5
	9
	1
	4
	10
	4
	5
	0
	4
	1
	0
	1
	9
	10
	0
	10
	9
	4
	1
	0
	1
	4
	9
	5
	9
	5
	0
	5
	4
	1
	0
	5
	9
	5
	9
	5
	9
	10
	9
	1
	9
	4
	5
	9
	1
	9
	1
	0
	1
	9
	9
	1
	0
	1
	9
	5
	9
	1
	0
	5
	4
	1
	0
	10
	9
	5
	8
	1
	4
	1
	4
	1
	0
	5
	4
	1
	0
	9
	9
	5
	0
	1
	9
	5
	4
	1
	9
	5
	0
	1
	4
	1
	0
	3
	9
	1
	0
	5
	4
	1
	9
	10
	0
	1
	4
	5
	9
	5
	0
	5
	9
	5
	0
	1
	4
	10
	9
	5
	9
	10
	0
	10
	9
	5
	0
	1
	4
	5
